Minimize
 -2 err0 -2 err1 -2 err2 -2 err3 -2 err4 -2 err5 -2 err6 -2 err7 -2 err8 -2 err9 -2 err10 -2 err11 -2 err12 -2 err13 -2 err14 -2 err15 -2 err16 -2 err17 -2 err18 -2 err19 -2 err20 -2 err21 -2 err22 -2 err23 -2 err24 -2 err25 -2 err26 -2 err27 -2 err28 -2 err29 -2 err30 -2 err31 -2 err32 -2 err33 -2 err34 -2 err35 -2 err36 -2 err37 -2 err38 -2 err39 -2 err40 -2 err41 -2 err42 -2 err43 -2 err44 -2 err45 -2 err46 -2 err47 -2 err48 -2 err49 -2 err50 -2 err51 -2 err52 -2 err53 -2 err54 -2 err55 -2 err56 -2 err57 -2 err58 -2 err59 -2 err60 -2 err61 -2 err62 -2 err63 -2 err64 -2 err65 -2 err66 -2 err67 -2 err68 -2 err69 -2 err70 -2 err71 -2 err72 -2 err73 -2 err74 -2 err75 -2 err76 -2 err77 -2 err78 -2 err79 -2 err80 -2 err81 -2 err82 -2 err83 -2 err84 -2 err85 -2 err86 -2 err87 -2 err88 -2 err89 -2 err90 -2 err91 -2 err92 -2 err93 -2 err94 -2 err95 -2 err96 -2 err97 -2 err98 -2 err99 -2 err100 -2 err101 -2 err102 -2 err103 -2 err104 -2 err105 -2 err106 -2 err107 -2 err108 -2 err109 -2 err110 +  [ err0 ^ 2 + err1 ^ 2 + err2 ^ 2 + err3 ^ 2 + err4 ^ 2 + err5 ^ 2 + err6 ^ 2 + err7 ^ 2 + err8 ^ 2 + err9 ^ 2 + err10 ^ 2 + err11 ^ 2 + err12 ^ 2 + err13 ^ 2 + err14 ^ 2 + err15 ^ 2 + err16 ^ 2 + err17 ^ 2 + err18 ^ 2 + err19 ^ 2 + err20 ^ 2 + err21 ^ 2 + err22 ^ 2 + err23 ^ 2 + err24 ^ 2 + err25 ^ 2 + err26 ^ 2 + err27 ^ 2 + err28 ^ 2 + err29 ^ 2 + err30 ^ 2 + err31 ^ 2 + err32 ^ 2 + err33 ^ 2 + err34 ^ 2 + err35 ^ 2 + err36 ^ 2 + err37 ^ 2 + err38 ^ 2 + err39 ^ 2 + err40 ^ 2 + err41 ^ 2 + err42 ^ 2 + err43 ^ 2 + err44 ^ 2 + err45 ^ 2 + err46 ^ 2 + err47 ^ 2 + err48 ^ 2 + err49 ^ 2 + err50 ^ 2 + err51 ^ 2 + err52 ^ 2 + err53 ^ 2 + err54 ^ 2 + err55 ^ 2 + err56 ^ 2 + err57 ^ 2 + err58 ^ 2 + err59 ^ 2 + err60 ^ 2 + err61 ^ 2 + err62 ^ 2 + err63 ^ 2 + err64 ^ 2 + err65 ^ 2 + err66 ^ 2 + err67 ^ 2 + err68 ^ 2 + err69 ^ 2 + err70 ^ 2 + err71 ^ 2 + err72 ^ 2 + err73 ^ 2 + err74 ^ 2 + err75 ^ 2 + err76 ^ 2 + err77 ^ 2 + err78 ^ 2 + err79 ^ 2 + err80 ^ 2 + err81 ^ 2 + err82 ^ 2 + err83 ^ 2 + err84 ^ 2 + err85 ^ 2 + err86 ^ 2 + err87 ^ 2 + err88 ^ 2 + err89 ^ 2 + err90 ^ 2 + err91 ^ 2 + err92 ^ 2 + err93 ^ 2 + err94 ^ 2 + err95 ^ 2 + err96 ^ 2 + err97 ^ 2 + err98 ^ 2 + err99 ^ 2 + err100 ^ 2 + err101 ^ 2 + err102 ^ 2 + err103 ^ 2 + err104 ^ 2 + err105 ^ 2 + err106 ^ 2 + err107 ^ 2 + err108 ^ 2 + err109 ^ 2 + err110 ^ 2 ] 
Subject To
layer_1 - layer_2 > 1
layer_2 - layer_3 > 1
layer_3 - layer_4 > 1
layer_4 - layer_5 > 1
particle_1 - particle_2 > 1
particle_2 - particle_3 > 1
particle_3 - particle_4 > 1
particle_4 - particle_5 > 1
particle_5 - particle_6 > 1
particle_6 - particle_7 > 1
particle_7 - particle_8 > 1
particle_8 - particle_9 > 1
particle_9 - particle_10 > 1
particle_10 - particle_11 > 1
particle_11 - particle_12 > 1
particle_12 - particle_13 > 1
particle_13 - particle_14 > 1
particle_14 - particle_15 > 1
particle_15 - particle_16 > 1
particle_16 - particle_17 > 1
particle_17 - particle_18 > 1
particle_18 - particle_19 > 1
particle_19 - particle_20 > 1
particle_20 - particle_21 > 1
particle_21 - particle_22 > 1
particle_22 - particle_23 > 1
particle_23 - particle_24 > 1
particle_24 - particle_25 > 1
particle_25 - particle_26 > 1
particle_26 - particle_27 > 1
particle_27 - particle_28 > 1
particle_28 - particle_29 > 1
particle_29 - particle_30 > 1
particle_30 - particle_31 > 1
particle_31 - particle_32 > 1
particle_32 - particle_33 > 1
particle_33 - particle_34 > 1
particle_34 - particle_35 > 1
particle_35 - particle_36 > 1
particle_36 - particle_37 > 1
particle_37 - particle_38 > 1
particle_38 - particle_39 > 1
particle_39 - particle_40 > 1

layer_1 + particle_1 - 301.033
 err0 = 0 
layer_2 + particle_1 - 245.033
 err1 = 0 
layer_3 + particle_1 - 188.5
 err2 = 0 
layer_4 + particle_1 - 133.233
 err3 = 0 
layer_5 + particle_1 - 79
 err4 = 0 
layer_1 + particle_2 - 293.533
 err5 = 0 
layer_2 + particle_2 - 239.733
 err6 = 0 
layer_3 + particle_2 - 186.433
 err7 = 0 
layer_4 + particle_2 - 131
 err8 = 0 
layer_1 + particle_3 - 290.467
 err9 = 0 
layer_2 + particle_3 - 235.267
 err10 = 0 
layer_3 + particle_3 - 180.833
 err11 = 0 
layer_4 + particle_3 - 129.467
 err12 = 0 
layer_1 + particle_4 - 282.6
 err13 = 0 
layer_2 + particle_4 - 230.8
 err14 = 0 
layer_3 + particle_4 - 178
 err15 = 0 
layer_4 + particle_4 - 125.367
 err16 = 0 
layer_1 + particle_5 - 274.767
 err17 = 0 
layer_2 + particle_5 - 224.8
 err18 = 0 
layer_3 + particle_5 - 172.833
 err19 = 0 
layer_4 + particle_5 - 123.567
 err20 = 0 
layer_1 + particle_6 - 267.533
 err21 = 0 
layer_2 + particle_6 - 218.033
 err22 = 0 
layer_3 + particle_6 - 169.1
 err23 = 0 
layer_4 + particle_6 - 120
 err24 = 0 
layer_1 + particle_7 - 260.633
 err25 = 0 
layer_2 + particle_7 - 212.367
 err26 = 0 
layer_3 + particle_7 - 165.3
 err27 = 0 
layer_4 + particle_7 - 117.233
 err28 = 0 
layer_1 + particle_8 - 253.4
 err29 = 0 
layer_2 + particle_8 - 206.167
 err30 = 0 
layer_3 + particle_8 - 161.167
 err31 = 0 
layer_4 + particle_8 - 114.333
 err32 = 0 
layer_1 + particle_9 - 247.8
 err33 = 0 
layer_2 + particle_9 - 202.433
 err34 = 0 
layer_3 + particle_9 - 155.933
 err35 = 0 
layer_4 + particle_9 - 111.333
 err36 = 0 
layer_1 + particle_10 - 239.467
 err37 = 0 
layer_2 + particle_10 - 195.8
 err38 = 0 
layer_3 + particle_10 - 151.233
 err39 = 0 
layer_4 + particle_10 - 108.6
 err40 = 0 
layer_1 + particle_11 - 233.1
 err41 = 0 
layer_2 + particle_11 - 187.533
 err42 = 0 
layer_3 + particle_11 - 148.733
 err43 = 0 
layer_1 + particle_12 - 227.1
 err44 = 0 
layer_2 + particle_12 - 184.8
 err45 = 0 
layer_3 + particle_12 - 144.267
 err46 = 0 
layer_1 + particle_13 - 216.133
 err47 = 0 
layer_2 + particle_13 - 177.5
 err48 = 0 
layer_3 + particle_13 - 139.667
 err49 = 0 
layer_1 + particle_14 - 210.033
 err50 = 0 
layer_2 + particle_14 - 173.6
 err51 = 0 
layer_3 + particle_14 - 133.867
 err52 = 0 
layer_1 + particle_15 - 203.167
 err53 = 0 
layer_2 + particle_15 - 167.367
 err54 = 0 
layer_3 + particle_15 - 130.567
 err55 = 0 
layer_1 + particle_16 - 199.4
 err56 = 0 
layer_2 + particle_16 - 161.167
 err57 = 0 
layer_3 + particle_16 - 127.433
 err58 = 0 
layer_1 + particle_17 - 191
 err59 = 0 
layer_2 + particle_17 - 158.233
 err60 = 0 
layer_3 + particle_17 - 122.767
 err61 = 0 
layer_1 + particle_18 - 183.333
 err62 = 0 
layer_2 + particle_18 - 150.2
 err63 = 0 
layer_3 + particle_18 - 120.233
 err64 = 0 
layer_1 + particle_19 - 178.733
 err65 = 0 
layer_2 + particle_19 - 146.4
 err66 = 0 
layer_3 + particle_19 - 114.667
 err67 = 0 
layer_1 + particle_20 - 169.2
 err68 = 0 
layer_2 + particle_20 - 139.133
 err69 = 0 
layer_3 + particle_20 - 109.567
 err70 = 0 
layer_1 + particle_21 - 162.533
 err71 = 0 
layer_2 + particle_21 - 134.2
 err72 = 0 
layer_1 + particle_22 - 155.433
 err73 = 0 
layer_2 + particle_22 - 128.9
 err74 = 0 
layer_1 + particle_23 - 147.667
 err75 = 0 
layer_2 + particle_23 - 122.3
 err76 = 0 
layer_1 + particle_24 - 142.133
 err77 = 0 
layer_2 + particle_24 - 116.867
 err78 = 0 
layer_1 + particle_25 - 134.1
 err79 = 0 
layer_2 + particle_25 - 111.433
 err80 = 0 
layer_1 + particle_26 - 126.767
 err81 = 0 
layer_2 + particle_26 - 105.967
 err82 = 0 
layer_1 + particle_27 - 119.867
 err83 = 0 
layer_2 + particle_27 - 101.467
 err84 = 0 
layer_1 + particle_28 - 113.933
 err85 = 0 
layer_2 + particle_28 - 95.3
 err86 = 0 
layer_1 + particle_29 - 106.967
 err87 = 0 
layer_2 + particle_29 - 88.7
 err88 = 0 
layer_1 + particle_30 - 98.8333
 err89 = 0 
layer_2 + particle_30 - 83.5667
 err90 = 0 
layer_1 + particle_31 - 91.2
 err91 = 0 
layer_2 + particle_31 - 77.5333
 err92 = 0 
layer_1 + particle_32 - 84.5333
 err93 = 0 
layer_2 + particle_32 - 72.4
 err94 = 0 
layer_1 + particle_33 - 78.0333
 err95 = 0 
layer_2 + particle_33 - 66.3
 err96 = 0 
layer_1 + particle_34 - 70.2667
 err97 = 0 
layer_2 + particle_34 - 60.4
 err98 = 0 
layer_1 + particle_35 - 63.6
 err99 = 0 
layer_2 + particle_35 - 54.8333
 err100 = 0 
layer_1 + particle_36 - 56.9667
 err101 = 0 
layer_2 + particle_36 - 50.3667
 err102 = 0 
layer_1 + particle_37 - 50.5333
 err103 = 0 
layer_2 + particle_37 - 45.3
 err104 = 0 
layer_1 + particle_38 - 42.6333
 err105 = 0 
layer_2 + particle_38 - 38.2667
 err106 = 0 
layer_1 + particle_39 - 35.2333
 err107 = 0 
layer_2 + particle_39 - 32.3333
 err108 = 0 
layer_1 + particle_40 - 27.8667
 err109 = 0 
layer_2 + particle_40 - 26.9
 err110 = 0 
End